
Gurobi 7.5.2 (linux64) logging started Sat Jul  7 16:00:07 2018

Changed value of parameter LogFile to result/ilp/simNo_9-n_100-m_40-s_4-minVAF_0.05-cov_10000-k_2-fn_0.05-fp_0.0001-na_0.15.ILP.gurobiSolverLog
   Prev: gurobi.log  Default: 
Changed value of parameter TimeLimit to 86400.0
   Prev: 1e+100  Min: 0.0  Max: 1e+100  Default: 1e+100
Optimize a model with 639293 rows, 10765 columns and 1940420 nonzeros
Variable types: 0 continuous, 10765 integer (10765 binary)
Coefficient statistics:
  Matrix range     [2e-04, 4e+00]
  Objective range  [1e-01, 9e+00]
  Bounds range     [1e+00, 1e+00]
  RHS range        [3e-01, 2e+00]
Found heuristic solution: objective -14697.14497
Presolve removed 132209 rows and 1025 columns (presolve time = 5s) ...
Presolve removed 132789 rows and 1025 columns (presolve time = 12s) ...
Presolve removed 190789 rows and 1605 columns (presolve time = 15s) ...
Presolve removed 190789 rows and 1605 columns
Presolve time: 17.73s
Presolved: 448504 rows, 9160 columns, 1348165 nonzeros
Variable types: 0 continuous, 9160 integer (9160 binary)
Presolved: 9160 rows, 457664 columns, 1357325 nonzeros

Presolve removed 9160 rows and 457664 columns

Root simplex log...

Iteration    Objective       Primal Inf.    Dual Inf.      Time
       0    6.2137947e+00   0.000000e+00   6.915700e+04     22s
   18250   -1.7076735e+02   0.000000e+00   1.206200e+05     25s
   23967   -1.8269944e+02   0.000000e+00   0.000000e+00     29s
   23967   -1.8269944e+02   0.000000e+00   0.000000e+00     30s

Root relaxation: objective -1.826994e+02, 23967 iterations, 10.84 seconds
Total elapsed time = 56.15s
Total elapsed time = 65.61s

    Nodes    |    Current Node    |     Objective Bounds      |     Work
 Expl Unexpl |  Obj  Depth IntInf | Incumbent    BestBd   Gap | It/Node Time

     0     0 -182.69944    0  442 -14697.145 -182.69944  98.8%     -   76s
H    0     0                    -257.6037541 -182.69944  29.1%     -   79s
H    0     0                    -234.4287227 -182.69944  22.1%     -   80s
H    0     0                    -214.0914955 -182.69944  14.7%     -   80s
     0     0 -187.31729    0  376 -214.09150 -187.31729  12.5%     -   93s
     0     0 -192.70478    0  362 -214.09150 -192.70478  10.0%     -  153s
     0     0 -192.71361    0  455 -214.09150 -192.71361  10.0%     -  186s
     0     0 -193.85925    0  384 -214.09150 -193.85925  9.45%     -  237s
     0     0 -193.85925    0  387 -214.09150 -193.85925  9.45%     -  254s
     0     0 -195.01371    0  360 -214.09150 -195.01371  8.91%     -  289s
H    0     0                    -212.8787448 -195.01371  8.39%     -  293s
     0     0 -196.55299    0  305 -212.87874 -196.55299  7.67%     -  354s
     0     0 -196.55299    0  305 -212.87874 -196.55299  7.67%     -  372s
     0     0 -196.55299    0  319 -212.87874 -196.55299  7.67%     -  383s
     0     0 -196.55299    0  292 -212.87874 -196.55299  7.67%     -  816s
     0     0 -198.09228    0  252 -212.87874 -198.09228  6.95%     - 1293s
     0     0 -198.58672    0  381 -212.87874 -198.58672  6.71%     - 1316s
     0     0 -198.59118    0  483 -212.87874 -198.59118  6.71%     - 1337s
     0     0 -198.59118    0  485 -212.87874 -198.59118  6.71%     - 1343s
     0     0 -198.59118    0  490 -212.87874 -198.59118  6.71%     - 1362s
     0     0 -198.87307    0  483 -212.87874 -198.87307  6.58%     - 1385s
     0     0 -198.91634    0  376 -212.87874 -198.91634  6.56%     - 1696s
     0     0 -199.02519    0  259 -212.87874 -199.02519  6.51%     - 1725s
     0     0 -199.51921    0  489 -212.87874 -199.51921  6.28%     - 1759s
     0     0 -199.51921    0  494 -212.87874 -199.51921  6.28%     - 1764s
     0     0 -200.86766    0  390 -212.87874 -200.86766  5.64%     - 1903s
     0     0 -201.18288    0  488 -212.87874 -201.18288  5.49%     - 1941s
     0     0 -201.24614    0  717 -212.87874 -201.24614  5.46%     - 2055s
     0     0 -201.31574    0  488 -212.87874 -201.31574  5.43%     - 2066s
     0     0 -201.31574    0  493 -212.87874 -201.31574  5.43%     - 2072s
     0     0 -201.31574    0  494 -212.87874 -201.31574  5.43%     - 2079s
     0     0 -201.31574    0  495 -212.87874 -201.31574  5.43%     - 2085s
     0     0 -201.47231    0  496 -212.87874 -201.47231  5.36%     - 2100s
     0     0 -201.59336    0  494 -212.87874 -201.59336  5.30%     - 2121s
     0     0 -201.59336    0  494 -212.87874 -201.59336  5.30%     - 2125s
     0     0 -201.77684    0  483 -212.87874 -201.77684  5.22%     - 2440s
     0     0 -201.85058    0  486 -212.87874 -201.85058  5.18%     - 2460s
     0     0 -201.86331    0  483 -212.87874 -201.86331  5.17%     - 2476s
     0     0 -201.90307    0  485 -212.87874 -201.90307  5.16%     - 2491s
     0     0 -201.90307    0  485 -212.87874 -201.90307  5.16%     - 2495s
     0     0 -202.67904    0  377 -212.87874 -202.67904  4.79%     - 2534s
     0     0 -202.68399    0  481 -212.87874 -202.68399  4.79%     - 2541s
     0     0 -202.68399    0  482 -212.87874 -202.68399  4.79%     - 2544s
     0     0 -203.02853    0  484 -212.87874 -203.02853  4.63%     - 2557s
     0     0 -203.11632    0  482 -212.87874 -203.11632  4.59%     - 2567s
     0     0 -203.52135    0  471 -212.87874 -203.52135  4.40%     - 2602s
     0     0 -203.52135    0  473 -212.87874 -203.52135  4.40%     - 2606s
     0     0 -203.52135    0  477 -212.87874 -203.52135  4.40%     - 2613s
     0     0 -203.53791    0  491 -212.87874 -203.53791  4.39%     - 2622s
     0     0 -203.54163    0  485 -212.87874 -203.54163  4.39%     - 2625s
     0     0 -203.54163    0  488 -212.87874 -203.54163  4.39%     - 2628s
     0     0 -203.54163    0  488 -212.87874 -203.54163  4.39%     - 2634s
     0     0 -203.54163    0  491 -212.87874 -203.54163  4.39%     - 2640s
     0     0 -203.69095    0  484 -212.87874 -203.69095  4.32%     - 3102s
     0     0 -203.72009    0  366 -212.87874 -203.72009  4.30%     - 3108s
     0     0 -203.80332    0  486 -212.87874 -203.80332  4.26%     - 3117s
     0     0 -203.80332    0  485 -212.87874 -203.80332  4.26%     - 3120s
     0     0 -203.80497    0  487 -212.87874 -203.80497  4.26%     - 3303s
     0     0 -203.80497    0  419 -212.87874 -203.80497  4.26%     - 3525s
     0     0 -203.80497    0  460 -212.87874 -203.80497  4.26%     - 3534s
     0     0 -203.80497    0  451 -212.87874 -203.80497  4.26%     - 3543s
     0     0 -203.80497    0  535 -212.87874 -203.80497  4.26%     - 3544s
     0     0 -203.80497    0  537 -212.87874 -203.80497  4.26%     - 3545s
     0     0 -204.81470    0  372 -212.87874 -204.81470  3.79%     - 3549s
     0     0 -204.81470    0  333 -212.87874 -204.81470  3.79%     - 3556s
     0     0 -204.81470    0  368 -212.87874 -204.81470  3.79%     - 3557s
     0     0 -204.81470    0  352 -212.87874 -204.81470  3.79%     - 3557s
     0     0 -204.81470    0  355 -212.87874 -204.81470  3.79%     - 3558s
     0     0 -205.28494    0  279 -212.87874 -205.28494  3.57%     - 3558s
     0     0 -205.42487    0  295 -212.87874 -205.42487  3.50%     - 3559s
     0     0 -205.51165    0  300 -212.87874 -205.51165  3.46%     - 3559s
     0     0 -205.51542    0  301 -212.87874 -205.51542  3.46%     - 3559s
     0     0 -205.52115    0  301 -212.87874 -205.52115  3.46%     - 3559s
     0     0 -205.52115    0  305 -212.87874 -205.52115  3.46%     - 3560s
     0     0 -205.52115    0  305 -212.87874 -205.52115  3.46%     - 3560s
     0     0 -205.52115    0  308 -212.87874 -205.52115  3.46%     - 3560s
     0     0 -205.52115    0  297 -212.87874 -205.52115  3.46%     - 3562s
     0     0 -205.52115    0  310 -212.87874 -205.52115  3.46%     - 3562s
     0     0 -205.52654    0  306 -212.87874 -205.52654  3.45%     - 3563s
     0     0 -205.58730    0  307 -212.87874 -205.58730  3.43%     - 3563s
     0     0 -205.64325    0  310 -212.87874 -205.64325  3.40%     - 3564s
     0     0 -205.67281    0  305 -212.87874 -205.67281  3.38%     - 3564s
     0     0 -205.67281    0  308 -212.87874 -205.67281  3.38%     - 3564s
     0     0 -205.67281    0  309 -212.87874 -205.67281  3.38%     - 3565s
     0     0 -205.67281    0  309 -212.87874 -205.67281  3.38%     - 3565s
     0     0 -205.67350    0  305 -212.87874 -205.67350  3.38%     - 3567s
     0     0 -205.69585    0  307 -212.87874 -205.69585  3.37%     - 3567s
     0     0 -205.69974    0  306 -212.87874 -205.69974  3.37%     - 3567s
     0     0 -205.70378    0  307 -212.87874 -205.70378  3.37%     - 3568s
     0     0 -205.76504    0  302 -212.87874 -205.76504  3.34%     - 3569s
     0     0 -205.76504    0  303 -212.87874 -205.76504  3.34%     - 3569s
     0     0 -205.76504    0  312 -212.87874 -205.76504  3.34%     - 3569s
     0     0 -205.76504    0  315 -212.87874 -205.76504  3.34%     - 3570s
     0     0 -205.76719    0  314 -212.87874 -205.76719  3.34%     - 3571s
     0     0 -205.76735    0  309 -212.87874 -205.76735  3.34%     - 3571s
     0     0 -205.77801    0  306 -212.87874 -205.77801  3.34%     - 3572s
     0     0 -205.77801    0  306 -212.87874 -205.77801  3.34%     - 3576s
     0     2 -205.80290    0  306 -212.87874 -205.80290  3.32%     - 3580s
    34     7 -211.96814    8  176 -212.87874 -206.80214  2.85%  52.4 3585s

Cutting planes:
  Gomory: 9
  Implied bound: 15
  Zero half: 59

Explored 84 nodes (223238 simplex iterations) in 3589.19 seconds
Thread count was 1 (of 80 available processors)

Solution count 7: -212.879 -212.879 -212.879 ... -14697.1

Optimal solution found (tolerance 1.00e-04)
Best objective -2.128787447615e+02, best bound -2.128787447615e+02, gap 0.0000%
